Automatically generated mesh
      260
Reciprocal lattice
    0.00000000000000    0.00000000000000    0.00000000000000             1
    0.14285714285714    0.00000000000000    0.00000000000000             6
    0.28571428571429    0.00000000000000    0.00000000000000             6
    0.42857142857143    0.00000000000000    0.00000000000000             6
    0.14285714285714    0.14285714285714    0.00000000000000            12
    0.28571428571429    0.14285714285714    0.00000000000000            24
    0.42857142857143    0.14285714285714    0.00000000000000            24
    0.28571428571429    0.28571428571429    0.00000000000000            12
    0.42857142857143    0.28571428571429    0.00000000000000            24
    0.42857142857143    0.42857142857143    0.00000000000000            12
    0.14285714285714    0.14285714285714    0.14285714285714             8
    0.28571428571429    0.14285714285714    0.14285714285714            24
    0.42857142857143    0.14285714285714    0.14285714285714            24
    0.28571428571429    0.28571428571429    0.14285714285714            24
    0.42857142857143    0.28571428571429    0.14285714285714            48
    0.42857142857143    0.42857142857143    0.14285714285714            24
    0.28571428571429    0.28571428571429    0.28571428571429             8
    0.42857142857143    0.28571428571429    0.28571428571429            24
    0.42857142857143    0.42857142857143    0.28571428571429            24
    0.42857142857143    0.42857142857143    0.42857142857143             8
0.0000 0.0000 0.0000 0
0.0128 0.0000 0.0128 0
0.0256 0.0000 0.0256 0
0.0385 0.0000 0.0385 0
0.0513 0.0000 0.0513 0
0.0641 0.0000 0.0641 0
0.0769 0.0000 0.0769 0
0.0897 0.0000 0.0897 0
0.1026 0.0000 0.1026 0
0.1154 0.0000 0.1154 0
0.1282 0.0000 0.1282 0
0.1410 0.0000 0.1410 0
0.1538 0.0000 0.1538 0
0.1667 0.0000 0.1667 0
0.1795 0.0000 0.1795 0
0.1923 0.0000 0.1923 0
0.2051 0.0000 0.2051 0
0.2179 0.0000 0.2179 0
0.2308 0.0000 0.2308 0
0.2436 0.0000 0.2436 0
0.2564 0.0000 0.2564 0
0.2692 0.0000 0.2692 0
0.2821 0.0000 0.2821 0
0.2949 0.0000 0.2949 0
0.3077 0.0000 0.3077 0
0.3205 0.0000 0.3205 0
0.3333 0.0000 0.3333 0
0.3462 0.0000 0.3462 0
0.3590 0.0000 0.3590 0
0.3718 0.0000 0.3718 0
0.3846 0.0000 0.3846 0
0.3974 0.0000 0.3974 0
0.4103 0.0000 0.4103 0
0.4231 0.0000 0.4231 0
0.4359 0.0000 0.4359 0
0.4487 0.0000 0.4487 0
0.4615 0.0000 0.4615 0
0.4744 0.0000 0.4744 0
0.4872 0.0000 0.4872 0
0.5000 0.0000 0.5000 0
0.5000 0.0000 0.5000 0
0.5032 0.0064 0.5032 0
0.5064 0.0128 0.5064 0
0.5096 0.0192 0.5096 0
0.5128 0.0256 0.5128 0
0.5160 0.0321 0.5160 0
0.5192 0.0385 0.5192 0
0.5224 0.0449 0.5224 0
0.5256 0.0513 0.5256 0
0.5288 0.0577 0.5288 0
0.5321 0.0641 0.5321 0
0.5353 0.0705 0.5353 0
0.5385 0.0769 0.5385 0
0.5417 0.0833 0.5417 0
0.5449 0.0897 0.5449 0
0.5481 0.0962 0.5481 0
0.5513 0.1026 0.5513 0
0.5545 0.1090 0.5545 0
0.5577 0.1154 0.5577 0
0.5609 0.1218 0.5609 0
0.5641 0.1282 0.5641 0
0.5673 0.1346 0.5673 0
0.5705 0.1410 0.5705 0
0.5737 0.1474 0.5737 0
0.5769 0.1538 0.5769 0
0.5801 0.1603 0.5801 0
0.5833 0.1667 0.5833 0
0.5865 0.1731 0.5865 0
0.5897 0.1795 0.5897 0
0.5929 0.1859 0.5929 0
0.5962 0.1923 0.5962 0
0.5994 0.1987 0.5994 0
0.6026 0.2051 0.6026 0
0.6058 0.2115 0.6058 0
0.6090 0.2179 0.6090 0
0.6122 0.2244 0.6122 0
0.6154 0.2308 0.6154 0
0.6186 0.2372 0.6186 0
0.6218 0.2436 0.6218 0
0.6250 0.2500 0.6250 0
0.3750 0.3750 0.7500 0
0.3654 0.3654 0.7308 0
0.3558 0.3558 0.7115 0
0.3462 0.3462 0.6923 0
0.3365 0.3365 0.6731 0
0.3269 0.3269 0.6538 0
0.3173 0.3173 0.6346 0
0.3077 0.3077 0.6154 0
0.2981 0.2981 0.5962 0
0.2885 0.2885 0.5769 0
0.2788 0.2788 0.5577 0
0.2692 0.2692 0.5385 0
0.2596 0.2596 0.5192 0
0.2500 0.2500 0.5000 0
0.2404 0.2404 0.4808 0
0.2308 0.2308 0.4615 0
0.2212 0.2212 0.4423 0
0.2115 0.2115 0.4231 0
0.2019 0.2019 0.4038 0
0.1923 0.1923 0.3846 0
0.1827 0.1827 0.3654 0
0.1731 0.1731 0.3462 0
0.1635 0.1635 0.3269 0
0.1538 0.1538 0.3077 0
0.1442 0.1442 0.2885 0
0.1346 0.1346 0.2692 0
0.1250 0.1250 0.2500 0
0.1154 0.1154 0.2308 0
0.1058 0.1058 0.2115 0
0.0962 0.0962 0.1923 0
0.0865 0.0865 0.1731 0
0.0769 0.0769 0.1538 0
0.0673 0.0673 0.1346 0
0.0577 0.0577 0.1154 0
0.0481 0.0481 0.0962 0
0.0385 0.0385 0.0769 0
0.0288 0.0288 0.0577 0
0.0192 0.0192 0.0385 0
0.0096 0.0096 0.0192 0
0.0000 0.0000 0.0000 0
0.0000 0.0000 0.0000 0
0.0128 0.0128 0.0128 0
0.0256 0.0256 0.0256 0
0.0385 0.0385 0.0385 0
0.0513 0.0513 0.0513 0
0.0641 0.0641 0.0641 0
0.0769 0.0769 0.0769 0
0.0897 0.0897 0.0897 0
0.1026 0.1026 0.1026 0
0.1154 0.1154 0.1154 0
0.1282 0.1282 0.1282 0
0.1410 0.1410 0.1410 0
0.1538 0.1538 0.1538 0
0.1667 0.1667 0.1667 0
0.1795 0.1795 0.1795 0
0.1923 0.1923 0.1923 0
0.2051 0.2051 0.2051 0
0.2179 0.2179 0.2179 0
0.2308 0.2308 0.2308 0
0.2436 0.2436 0.2436 0
0.2564 0.2564 0.2564 0
0.2692 0.2692 0.2692 0
0.2821 0.2821 0.2821 0
0.2949 0.2949 0.2949 0
0.3077 0.3077 0.3077 0
0.3205 0.3205 0.3205 0
0.3333 0.3333 0.3333 0
0.3462 0.3462 0.3462 0
0.3590 0.3590 0.3590 0
0.3718 0.3718 0.3718 0
0.3846 0.3846 0.3846 0
0.3974 0.3974 0.3974 0
0.4103 0.4103 0.4103 0
0.4231 0.4231 0.4231 0
0.4359 0.4359 0.4359 0
0.4487 0.4487 0.4487 0
0.4615 0.4615 0.4615 0
0.4744 0.4744 0.4744 0
0.4872 0.4872 0.4872 0
0.5000 0.5000 0.5000 0
0.5000 0.5000 0.5000 0
0.5000 0.4936 0.5064 0
0.5000 0.4872 0.5128 0
0.5000 0.4808 0.5192 0
0.5000 0.4744 0.5256 0
0.5000 0.4679 0.5321 0
0.5000 0.4615 0.5385 0
0.5000 0.4551 0.5449 0
0.5000 0.4487 0.5513 0
0.5000 0.4423 0.5577 0
0.5000 0.4359 0.5641 0
0.5000 0.4295 0.5705 0
0.5000 0.4231 0.5769 0
0.5000 0.4167 0.5833 0
0.5000 0.4103 0.5897 0
0.5000 0.4038 0.5962 0
0.5000 0.3974 0.6026 0
0.5000 0.3910 0.6090 0
0.5000 0.3846 0.6154 0
0.5000 0.3782 0.6218 0
0.5000 0.3718 0.6282 0
0.5000 0.3654 0.6346 0
0.5000 0.3590 0.6410 0
0.5000 0.3526 0.6474 0
0.5000 0.3462 0.6538 0
0.5000 0.3397 0.6603 0
0.5000 0.3333 0.6667 0
0.5000 0.3269 0.6731 0
0.5000 0.3205 0.6795 0
0.5000 0.3141 0.6859 0
0.5000 0.3077 0.6923 0
0.5000 0.3013 0.6987 0
0.5000 0.2949 0.7051 0
0.5000 0.2885 0.7115 0
0.5000 0.2821 0.7179 0
0.5000 0.2756 0.7244 0
0.5000 0.2692 0.7308 0
0.5000 0.2628 0.7372 0
0.5000 0.2564 0.7436 0
0.5000 0.2500 0.7500 0
0.5000 0.2500 0.7500 0
0.5000 0.2436 0.7436 0
0.5000 0.2372 0.7372 0
0.5000 0.2308 0.7308 0
0.5000 0.2244 0.7244 0
0.5000 0.2179 0.7179 0
0.5000 0.2115 0.7115 0
0.5000 0.2051 0.7051 0
0.5000 0.1987 0.6987 0
0.5000 0.1923 0.6923 0
0.5000 0.1859 0.6859 0
0.5000 0.1795 0.6795 0
0.5000 0.1731 0.6731 0
0.5000 0.1667 0.6667 0
0.5000 0.1603 0.6603 0
0.5000 0.1538 0.6538 0
0.5000 0.1474 0.6474 0
0.5000 0.1410 0.6410 0
0.5000 0.1346 0.6346 0
0.5000 0.1282 0.6282 0
0.5000 0.1218 0.6218 0
0.5000 0.1154 0.6154 0
0.5000 0.1090 0.6090 0
0.5000 0.1026 0.6026 0
0.5000 0.0962 0.5962 0
0.5000 0.0897 0.5897 0
0.5000 0.0833 0.5833 0
0.5000 0.0769 0.5769 0
0.5000 0.0705 0.5705 0
0.5000 0.0641 0.5641 0
0.5000 0.0577 0.5577 0
0.5000 0.0513 0.5513 0
0.5000 0.0449 0.5449 0
0.5000 0.0385 0.5385 0
0.5000 0.0321 0.5321 0
0.5000 0.0256 0.5256 0
0.5000 0.0192 0.5192 0
0.5000 0.0128 0.5128 0
0.5000 0.0064 0.5064 0
0.5000 0.0000 0.5000 0