SYSTEM = Bi3Te3I3
!NPAR = 2
PREC = High
ENCUT = 625
EDIFF = 1e-6
LREAL = Auto
Algo = N
NSW = 0
NPAR = 11
ISPIN =  1
ISTART=1
ICHARG=0
NELM=300

POTIM = 0.2
ISMEAR = 0
SIGMA = 0.05
IBRION = 3
ISIF = 3

EDIFFG = -0.02
KSPACING = 0.25

!PSTRESS=0.00101325
LORBIT =12 


METAGGA=MBJ
LASPH=.TRUE.
