pymatgen with grid density = 2783 / number of atoms
0
Gamma
7 7 7
